(set-logic QF_NRA)
(declare-fun skoCM1 () Real)
(declare-fun skoC () Real)
(declare-fun skoX () Real)
(assert (and (not (<= (+ (* (- 6) skoC) (* 12 (* skoC skoC))) (- 1))) (and (not (<= (+ (* (- 45) skoCM1) (* 6 skoC) (* (- 1215) (* skoCM1 skoCM1)) (* (- 12) (* skoC skoC)) (* 270 (* skoCM1 skoC)) (* (- 540) (* skoCM1 skoC skoC)) (* 7290 (* skoCM1 skoCM1 skoC)) (* (- 24435) (* skoCM1 skoCM1 skoCM1)) (* (- 14580) (* skoCM1 skoCM1 skoC skoC)) (* 146610 (* skoCM1 skoCM1 skoCM1 skoC)) (* (- 393660) (* skoCM1 skoCM1 skoCM1 skoCM1)) (* (- 293220) (* skoCM1 skoCM1 skoCM1 skoC skoC)) (* 2361960 (* skoCM1 skoCM1 skoCM1 skoCM1 skoC)) (* (- 5263380) (* skoCM1 skoCM1 skoCM1 skoCM1 skoCM1)) (* (- 4723920) (* skoCM1 skoCM1 skoCM1 skoCM1 skoC skoC)) (* 31580280 (* skoCM1 skoCM1 skoCM1 skoCM1 skoCM1 skoC)) (* (- 59632200) (* skoCM1 skoCM1 skoCM1 skoCM1 skoCM1 skoCM1)) (* (- 63160560) (* skoCM1 skoCM1 skoCM1 skoCM1 skoCM1 skoC skoC)) (* 357793200 (* skoCM1 skoCM1 skoCM1 skoCM1 skoCM1 skoCM1 skoC)) (* (- 578680200) (* skoCM1 skoCM1 skoCM1 skoCM1 skoCM1 skoCM1 skoCM1)) (* (- 715586400) (* skoCM1 skoCM1 skoCM1 skoCM1 skoCM1 skoCM1 skoC skoC)) (* 3472081200 (* skoCM1 skoCM1 skoCM1 skoCM1 skoCM1 skoCM1 skoCM1 skoC)) (* (- 4818398400) (* skoCM1 skoCM1 skoCM1 skoCM1 skoCM1 skoCM1 skoCM1 skoCM1)) (* (- 6944162400) (* skoCM1 skoCM1 skoCM1 skoCM1 skoCM1 skoCM1 skoCM1 skoC skoC)) (* 28910390400 (* skoCM1 skoCM1 skoCM1 skoCM1 skoCM1 skoCM1 skoCM1 skoCM1 skoC)) (* (- 34295659200) (* skoCM1 skoCM1 skoCM1 skoCM1 skoCM1 skoCM1 skoCM1 skoCM1 skoCM1)) (* (- 57820780800) (* skoCM1 skoCM1 skoCM1 skoCM1 skoCM1 skoCM1 skoCM1 skoCM1 skoC skoC)) (* 205773955200 (* skoCM1 skoCM1 skoCM1 skoCM1 skoCM1 skoCM1 skoCM1 skoCM1 skoCM1 skoC)) (* (- 206624260800) (* skoCM1 skoCM1 skoCM1 skoCM1 skoCM1 skoCM1 skoCM1 skoCM1 skoCM1 skoCM1)) (* (- 411547910400) (* skoCM1 skoCM1 skoCM1 skoCM1 skoCM1 skoCM1 skoCM1 skoCM1 skoCM1 skoC skoC)) (* 1239745564800 (* skoCM1 skoCM1 skoCM1 skoCM1 skoCM1 skoCM1 skoCM1 skoCM1 skoCM1 skoCM1 skoC)) (* (- 1033121304000) (* skoCM1 skoCM1 skoCM1 skoCM1 skoCM1 skoCM1 skoCM1 skoCM1 skoCM1 skoCM1 skoCM1)) (* (- 2479491129600) (* skoCM1 skoCM1 skoCM1 skoCM1 skoCM1 skoCM1 skoCM1 skoCM1 skoCM1 skoCM1 skoC skoC)) (* 6198727824000 (* skoCM1 skoCM1 skoCM1 skoCM1 skoCM1 skoCM1 skoCM1 skoCM1 skoCM1 skoCM1 skoCM1 skoC)) (* (- 4132485216000) (* skoCM1 skoCM1 skoCM1 skoCM1 skoCM1 skoCM1 skoCM1 skoCM1 skoCM1 skoCM1 skoCM1 skoCM1)) (* (- 12397455648000) (* skoCM1 skoCM1 skoCM1 skoCM1 skoCM1 skoCM1 skoCM1 skoCM1 skoCM1 skoCM1 skoCM1 skoC skoC)) (* 24794911296000 (* skoCM1 skoCM1 skoCM1 skoCM1 skoCM1 skoCM1 skoCM1 skoCM1 skoCM1 skoCM1 skoCM1 skoCM1 skoC)) (* (- 12397455648000) (* skoCM1 skoCM1 skoCM1 skoCM1 skoCM1 skoCM1 skoCM1 skoCM1 skoCM1 skoCM1 skoCM1 skoCM1 skoCM1)) (* (- 49589822592000) (* skoCM1 skoCM1 skoCM1 skoCM1 skoCM1 skoCM1 skoCM1 skoCM1 skoCM1 skoCM1 skoCM1 skoCM1 skoC skoC)) (* 74384733888000 (* skoCM1 skoCM1 skoCM1 skoCM1 skoCM1 skoCM1 skoCM1 skoCM1 skoCM1 skoCM1 skoCM1 skoCM1 skoCM1 skoC)) (* (- 24794911296000) (* skoCM1 skoCM1 skoCM1 skoCM1 skoCM1 skoCM1 skoCM1 skoCM1 skoCM1 skoCM1 skoCM1 skoCM1 skoCM1 skoCM1)) (* (- 148769467776000) (* skoCM1 skoCM1 skoCM1 skoCM1 skoCM1 skoCM1 skoCM1 skoCM1 skoCM1 skoCM1 skoCM1 skoCM1 skoCM1 skoC skoC)) (* 148769467776000 (* skoCM1 skoCM1 skoCM1 skoCM1 skoCM1 skoCM1 skoCM1 skoCM1 skoCM1 skoCM1 skoCM1 skoCM1 skoCM1 skoCM1 skoC)) (* (- 297538935552000) (* skoCM1 skoCM1 skoCM1 skoCM1 skoCM1 skoCM1 skoCM1 skoCM1 skoCM1 skoCM1 skoCM1 skoCM1 skoCM1 skoCM1 skoC skoC)) (* 297538935552000 (* skoCM1 skoCM1 skoCM1 skoCM1 skoCM1 skoCM1 skoCM1 skoCM1 skoCM1 skoCM1 skoCM1 skoCM1 skoCM1 skoCM1 skoCM1 skoC))) 1)) (and (= (+ (* (- 1) skoX) (* skoCM1 skoCM1 skoCM1)) (- 1)) (and (= (+ (* (- 1) skoX) (* skoC skoC skoC)) 0) (and (not (<= skoX 1)) (and (not (<= skoCM1 0)) (not (<= skoC 0)))))))))
(set-info :status unsat)
(check-sat)
